sat
(
  (define-fun StorageProv9 () Int
    2000)
  (define-fun C3_VM5 () Int
    1)
  (define-fun C4_VM3 () Int
    0)
  (define-fun C5_VM2 () Int
    1)
  (define-fun C2_VM3 () Int
    0)
  (define-fun PriceProv6 () Int
    210)
  (define-fun StorageProv7 () Int
    2000)
  (define-fun C2_VM9 () Int
    1)
  (define-fun C2_VM7 () Int
    0)
  (define-fun C4_VM1 () Int
    0)
  (define-fun C1_VM5 () Int
    0)
  (define-fun C2_VM2 () Int
    0)
  (define-fun C2_VM1 () Int
    1)
  (define-fun VM6Type () Int
    341)
  (define-fun C5_VM8 () Int
    0)
  (define-fun MemProv10 () Int
    3750)
  (define-fun VM8Type () Int
    433)
  (define-fun PriceProv3 () Int
    116)
  (define-fun StorageProv3 () Int
    2000)
  (define-fun C5_VM7 () Int
    0)
  (define-fun C1_VM8 () Int
    1)
  (define-fun VM10Type () Int
    433)
  (define-fun PriceProv9 () Int
    116)
  (define-fun C1_VM7 () Int
    1)
  (define-fun StorageProv4 () Int
    2000)
  (define-fun C2_VM10 () Int
    0)
  (define-fun C4_VM5 () Int
    0)
  (define-fun C4_VM8 () Int
    0)
  (define-fun C2_VM4 () Int
    1)
  (define-fun C4_VM10 () Int
    0)
  (define-fun ProcProv5 () Int
    4)
  (define-fun C4_VM4 () Int
    0)
  (define-fun C4_VM7 () Int
    0)
  (define-fun ProcProv3 () Int
    2)
  (define-fun C5_VM5 () Int
    0)
  (define-fun C5_VM6 () Int
    1)
  (define-fun PriceProv5 () Int
    210)
  (define-fun ProcProv8 () Int
    2)
  (define-fun C1_VM3 () Int
    1)
  (define-fun PriceProv8 () Int
    116)
  (define-fun StorageProv10 () Int
    2000)
  (define-fun PriceProv10 () Int
    116)
  (define-fun StorageProv6 () Int
    2000)
  (define-fun MemProv1 () Int
    3750)
  (define-fun ProcProv2 () Int
    4)
  (define-fun C3_VM3 () Int
    0)
  (define-fun C3_VM1 () Int
    0)
  (define-fun C1_VM2 () Int
    0)
  (define-fun C2_VM6 () Int
    0)
  (define-fun VM7Type () Int
    433)
  (define-fun C1_VM4 () Int
    0)
  (define-fun C3_VM6 () Int
    0)
  (define-fun C1_VM10 () Int
    1)
  (define-fun MemProv4 () Int
    3750)
  (define-fun StorageProv8 () Int
    2000)
  (define-fun C3_VM8 () Int
    0)
  (define-fun C5_VM4 () Int
    0)
  (define-fun C5_VM1 () Int
    0)
  (define-fun C5_VM10 () Int
    0)
  (define-fun C1_VM9 () Int
    0)
  (define-fun C4_VM9 () Int
    0)
  (define-fun StorageProv1 () Int
    2000)
  (define-fun C5_VM9 () Int
    0)
  (define-fun VM9Type () Int
    433)
  (define-fun ProcProv1 () Int
    2)
  (define-fun C1_VM1 () Int
    0)
  (define-fun C3_VM10 () Int
    0)
  (define-fun MemProv5 () Int
    7500)
  (define-fun MemProv8 () Int
    3750)
  (define-fun VM3Type () Int
    433)
  (define-fun PriceProv4 () Int
    116)
  (define-fun ProcProv10 () Int
    2)
  (define-fun StorageProv2 () Int
    2000)
  (define-fun PriceProv1 () Int
    116)
  (define-fun C2_VM5 () Int
    0)
  (define-fun C3_VM7 () Int
    0)
  (define-fun MemProv9 () Int
    3750)
  (define-fun ProcProv4 () Int
    2)
  (define-fun MemProv3 () Int
    3750)
  (define-fun VM5Type () Int
    341)
  (define-fun MemProv2 () Int
    7500)
  (define-fun C3_VM4 () Int
    0)
  (define-fun ProcProv7 () Int
    2)
  (define-fun MemProv7 () Int
    3750)
  (define-fun VM1Type () Int
    433)
  (define-fun C3_VM2 () Int
    0)
  (define-fun C5_VM3 () Int
    0)
  (define-fun PriceProv2 () Int
    210)
  (define-fun VM2Type () Int
    341)
  (define-fun VM4Type () Int
    433)
  (define-fun StorageProv5 () Int
    2000)
  (define-fun C1_VM6 () Int
    0)
  (define-fun C4_VM2 () Int
    0)
  (define-fun C2_VM8 () Int
    0)
  (define-fun C4_VM6 () Int
    0)
  (define-fun MemProv6 () Int
    7500)
  (define-fun PriceProv7 () Int
    116)
  (define-fun ProcProv9 () Int
    2)
  (define-fun C3_VM9 () Int
    0)
  (define-fun ProcProv6 () Int
    4)
)
(objectives
 ( 40)
 ((+ 0
   PriceProv1
   PriceProv2
   PriceProv3
   PriceProv4
   PriceProv5
   PriceProv6
   PriceProv7
   PriceProv8
   PriceProv9
   PriceProv10) 1442)
)
(:added-eqs                   905869
 :arith-eq-adapter            339248
 :arith-bound-propagations-lp 871
 :arith-conflicts             67
 :arith-diseq                 616383
 :arith-fixed-eqs             5243
 :arith-lower                 609908
 :arith-make-feasible         252793
 :arith-max-columns           615
 :arith-max-rows              32
 :arith-upper                 654522
 :binary-propagations         2306050
 :bv-bit2core                 8170
 :bv-dynamic-diseqs           879492
 :bv-dynamic-eqs              2
 :bv->core-eq                 3439
 :conflicts                   3856
 :decisions                   662265
 :del-clause                  1016435
 :final-checks                39
 :max-memory                  125.10
 :maxsat-cores                10
 :memory                      121.14
 :minimized-lits              1185
 :mk-bool-var                 685483
 :mk-clause                   1022154
 :mk-clause-binary            24344
 :num-allocs                  9459017406.00
 :num-checks                  51
 :pb-conflicts                82
 :pb-predicates               7
 :pb-propagations             3203
 :pb-resolves                 1
 :propagations                2771785
 :restarts                    26
 :rlimit-count                36428744
 :time                        6.01
 :total-time                  6.04)
